\ENCODING=ISO-8859-1
\Problem name: 

Minimize
 obj: 60 Y_(0_0)_1 + 60 Y_(0_0)_2 + 60 Y_(0_0)_3 + 60 Y_(0_0)_4 + 60 Y_(0_0)_5
      + 220 Y_(0_1)_1 + 220 Y_(0_1)_2 + 220 Y_(0_1)_3 + 220 Y_(0_1)_4
      + 220 Y_(0_1)_5 + 300 Y_(0_2)_1 + 300 Y_(0_2)_2 + 300 Y_(0_2)_3
      + 300 Y_(0_2)_4 + 300 Y_(0_2)_5 + 270 Y_(0_3)_1 + 270 Y_(0_3)_2
      + 270 Y_(0_3)_3 + 270 Y_(0_3)_4 + 270 Y_(0_3)_5 + 450 Y_(0_4)_1
      + 450 Y_(0_4)_2 + 450 Y_(0_4)_3 + 450 Y_(0_4)_4 + 450 Y_(0_4)_5
      + 95 Y_(1_0)_1 + 95 Y_(1_0)_2 + 95 Y_(1_0)_3 + 95 Y_(1_0)_4
      + 95 Y_(1_0)_5 + 45 Y_(1_1)_1 + 45 Y_(1_1)_2 + 45 Y_(1_1)_3
      + 45 Y_(1_1)_4 + 45 Y_(1_1)_5 + 200 Y_(1_2)_1 + 200 Y_(1_2)_2
      + 200 Y_(1_2)_3 + 200 Y_(1_2)_4 + 200 Y_(1_2)_5 + 260 Y_(1_3)_1
      + 260 Y_(1_3)_2 + 260 Y_(1_3)_3 + 260 Y_(1_3)_4 + 260 Y_(1_3)_5
      + 230 Y_(1_4)_1 + 230 Y_(1_4)_2 + 230 Y_(1_4)_3 + 230 Y_(1_4)_4
      + 230 Y_(1_4)_5 + 450 Y_(2_0)_1 + 450 Y_(2_0)_2 + 450 Y_(2_0)_3
      + 450 Y_(2_0)_4 + 450 Y_(2_0)_5 + 300 Y_(2_1)_1 + 300 Y_(2_1)_2
      + 300 Y_(2_1)_3 + 300 Y_(2_1)_4 + 300 Y_(2_1)_5 + 250 Y_(2_2)_1
      + 250 Y_(2_2)_2 + 250 Y_(2_2)_3 + 250 Y_(2_2)_4 + 250 Y_(2_2)_5
      + 100 Y_(2_3)_1 + 100 Y_(2_3)_2 + 100 Y_(2_3)_3 + 100 Y_(2_3)_4
      + 100 Y_(2_3)_5 + 90 Y_(2_4)_1 + 90 Y_(2_4)_2 + 90 Y_(2_4)_3
      + 90 Y_(2_4)_4 + 90 Y_(2_4)_5 + 1100 Y_(3_0)_1 + 1100 Y_(3_0)_2
      + 1100 Y_(3_0)_3 + 1100 Y_(3_0)_4 + 1100 Y_(3_0)_5 + 1300 Y_(3_1)_1
      + 1300 Y_(3_1)_2 + 1300 Y_(3_1)_3 + 1300 Y_(3_1)_4 + 1300 Y_(3_1)_5
      + 1100 Y_(3_2)_1 + 1100 Y_(3_2)_2 + 1100 Y_(3_2)_3 + 1100 Y_(3_2)_4
      + 1100 Y_(3_2)_5 + 1000 Y_(3_3)_1 + 1000 Y_(3_3)_2 + 1000 Y_(3_3)_3
      + 1000 Y_(3_3)_4 + 1000 Y_(3_3)_5 + 1000 Y_(3_4)_1 + 1000 Y_(3_4)_2
      + 1000 Y_(3_4)_3 + 1000 Y_(3_4)_4 + 1000 Y_(3_4)_5 + 400 Y_(4_0)_1
      + 400 Y_(4_0)_2 + 400 Y_(4_0)_3 + 400 Y_(4_0)_4 + 400 Y_(4_0)_5
      + 200 Y_(4_1)_1 + 200 Y_(4_1)_2 + 200 Y_(4_1)_3 + 200 Y_(4_1)_4
      + 200 Y_(4_1)_5 + 900 Y_(4_2)_1 + 900 Y_(4_2)_2 + 900 Y_(4_2)_3
      + 900 Y_(4_2)_4 + 900 Y_(4_2)_5 + 1200 Y_(4_3)_1 + 1200 Y_(4_3)_2
      + 1200 Y_(4_3)_3 + 1200 Y_(4_3)_4 + 1200 Y_(4_3)_5 + 750 Y_(4_4)_1
      + 750 Y_(4_4)_2 + 750 Y_(4_4)_3 + 750 Y_(4_4)_4 + 750 Y_(4_4)_5
Subject To
 ARESTA_I_4_J_0:        Y_(1_0)_1 + Y_(1_0)_2 + Y_(1_0)_3 + Y_(1_0)_4
                        + Y_(1_0)_5 + Y_(2_0)_1 + Y_(2_0)_2 + Y_(2_0)_3
                        + Y_(2_0)_4 + Y_(2_0)_5 + Y_(3_0)_1 + Y_(3_0)_2
                        + Y_(3_0)_3 + Y_(3_0)_4 + Y_(3_0)_5 + Y_(4_0)_1
                        + Y_(4_0)_2 + Y_(4_0)_3 + Y_(4_0)_4 + Y_(4_0)_5  = 1
 ARESTA_J_0_I_4:        Y_(0_1)_1 + Y_(0_1)_2 + Y_(0_1)_3 + Y_(0_1)_4
                        + Y_(0_1)_5 + Y_(0_2)_1 + Y_(0_2)_2 + Y_(0_2)_3
                        + Y_(0_2)_4 + Y_(0_2)_5 + Y_(0_3)_1 + Y_(0_3)_2
                        + Y_(0_3)_3 + Y_(0_3)_4 + Y_(0_3)_5 + Y_(0_4)_1
                        + Y_(0_4)_2 + Y_(0_4)_3 + Y_(0_4)_4 + Y_(0_4)_5  = 1
 ARESTA_I_4_J_1:        Y_(0_1)_1 + Y_(0_1)_2 + Y_(0_1)_3 + Y_(0_1)_4
                        + Y_(0_1)_5 + Y_(2_1)_1 + Y_(2_1)_2 + Y_(2_1)_3
                        + Y_(2_1)_4 + Y_(2_1)_5 + Y_(3_1)_1 + Y_(3_1)_2
                        + Y_(3_1)_3 + Y_(3_1)_4 + Y_(3_1)_5 + Y_(4_1)_1
                        + Y_(4_1)_2 + Y_(4_1)_3 + Y_(4_1)_4 + Y_(4_1)_5  = 1
 ARESTA_J_1_I_4:        Y_(1_0)_1 + Y_(1_0)_2 + Y_(1_0)_3 + Y_(1_0)_4
                        + Y_(1_0)_5 + Y_(1_2)_1 + Y_(1_2)_2 + Y_(1_2)_3
                        + Y_(1_2)_4 + Y_(1_2)_5 + Y_(1_3)_1 + Y_(1_3)_2
                        + Y_(1_3)_3 + Y_(1_3)_4 + Y_(1_3)_5 + Y_(1_4)_1
                        + Y_(1_4)_2 + Y_(1_4)_3 + Y_(1_4)_4 + Y_(1_4)_5  = 1
 ARESTA_I_4_J_2:        Y_(0_2)_1 + Y_(0_2)_2 + Y_(0_2)_3 + Y_(0_2)_4
                        + Y_(0_2)_5 + Y_(1_2)_1 + Y_(1_2)_2 + Y_(1_2)_3
                        + Y_(1_2)_4 + Y_(1_2)_5 + Y_(3_2)_1 + Y_(3_2)_2
                        + Y_(3_2)_3 + Y_(3_2)_4 + Y_(3_2)_5 + Y_(4_2)_1
                        + Y_(4_2)_2 + Y_(4_2)_3 + Y_(4_2)_4 + Y_(4_2)_5  = 1
 ARESTA_J_2_I_4:        Y_(2_0)_1 + Y_(2_0)_2 + Y_(2_0)_3 + Y_(2_0)_4
                        + Y_(2_0)_5 + Y_(2_1)_1 + Y_(2_1)_2 + Y_(2_1)_3
                        + Y_(2_1)_4 + Y_(2_1)_5 + Y_(2_3)_1 + Y_(2_3)_2
                        + Y_(2_3)_3 + Y_(2_3)_4 + Y_(2_3)_5 + Y_(2_4)_1
                        + Y_(2_4)_2 + Y_(2_4)_3 + Y_(2_4)_4 + Y_(2_4)_5  = 1
 ARESTA_I_4_J_3:        Y_(0_3)_1 + Y_(0_3)_2 + Y_(0_3)_3 + Y_(0_3)_4
                        + Y_(0_3)_5 + Y_(1_3)_1 + Y_(1_3)_2 + Y_(1_3)_3
                        + Y_(1_3)_4 + Y_(1_3)_5 + Y_(2_3)_1 + Y_(2_3)_2
                        + Y_(2_3)_3 + Y_(2_3)_4 + Y_(2_3)_5 + Y_(4_3)_1
                        + Y_(4_3)_2 + Y_(4_3)_3 + Y_(4_3)_4 + Y_(4_3)_5  = 1
 ARESTA_J_3_I_4:        Y_(3_0)_1 + Y_(3_0)_2 + Y_(3_0)_3 + Y_(3_0)_4
                        + Y_(3_0)_5 + Y_(3_1)_1 + Y_(3_1)_2 + Y_(3_1)_3
                        + Y_(3_1)_4 + Y_(3_1)_5 + Y_(3_2)_1 + Y_(3_2)_2
                        + Y_(3_2)_3 + Y_(3_2)_4 + Y_(3_2)_5 + Y_(3_4)_1
                        + Y_(3_4)_2 + Y_(3_4)_3 + Y_(3_4)_4 + Y_(3_4)_5  = 1
 ARESTA_I_4_J_4:        Y_(0_4)_1 + Y_(0_4)_2 + Y_(0_4)_3 + Y_(0_4)_4
                        + Y_(0_4)_5 + Y_(1_4)_1 + Y_(1_4)_2 + Y_(1_4)_3
                        + Y_(1_4)_4 + Y_(1_4)_5 + Y_(2_4)_1 + Y_(2_4)_2
                        + Y_(2_4)_3 + Y_(2_4)_4 + Y_(2_4)_5 + Y_(3_4)_1
                        + Y_(3_4)_2 + Y_(3_4)_3 + Y_(3_4)_4 + Y_(3_4)_5  = 1
 ARESTA_J_4_I_4:        Y_(4_0)_1 + Y_(4_0)_2 + Y_(4_0)_3 + Y_(4_0)_4
                        + Y_(4_0)_5 + Y_(4_1)_1 + Y_(4_1)_2 + Y_(4_1)_3
                        + Y_(4_1)_4 + Y_(4_1)_5 + Y_(4_2)_1 + Y_(4_2)_2
                        + Y_(4_2)_3 + Y_(4_2)_4 + Y_(4_2)_5 + Y_(4_3)_1
                        + Y_(4_3)_2 + Y_(4_3)_3 + Y_(4_3)_4 + Y_(4_3)_5  = 1
 ARESTA_EM_USO_I_4_J_4: Y_(0_0)_1 + Y_(0_1)_1 + Y_(0_2)_1 + Y_(0_3)_1
                        + Y_(0_4)_1 + Y_(1_0)_1 + Y_(1_1)_1 + Y_(1_2)_1
                        + Y_(1_3)_1 + Y_(1_4)_1 + Y_(2_0)_1 + Y_(2_1)_1
                        + Y_(2_2)_1 + Y_(2_3)_1 + Y_(2_4)_1 + Y_(3_0)_1
                        + Y_(3_1)_1 + Y_(3_2)_1 + Y_(3_3)_1 + Y_(3_4)_1
                        + Y_(4_0)_1 + Y_(4_1)_1 + Y_(4_2)_1 + Y_(4_3)_1
                        + Y_(4_4)_1  = 1
 ARESTA_EM_USO_I_4_J_4: Y_(0_0)_2 + Y_(0_1)_2 + Y_(0_2)_2 + Y_(0_3)_2
                        + Y_(0_4)_2 + Y_(1_0)_2 + Y_(1_1)_2 + Y_(1_2)_2
                        + Y_(1_3)_2 + Y_(1_4)_2 + Y_(2_0)_2 + Y_(2_1)_2
                        + Y_(2_2)_2 + Y_(2_3)_2 + Y_(2_4)_2 + Y_(3_0)_2
                        + Y_(3_1)_2 + Y_(3_2)_2 + Y_(3_3)_2 + Y_(3_4)_2
                        + Y_(4_0)_2 + Y_(4_1)_2 + Y_(4_2)_2 + Y_(4_3)_2
                        + Y_(4_4)_2  = 1
 ARESTA_EM_USO_I_4_J_4: Y_(0_0)_3 + Y_(0_1)_3 + Y_(0_2)_3 + Y_(0_3)_3
                        + Y_(0_4)_3 + Y_(1_0)_3 + Y_(1_1)_3 + Y_(1_2)_3
                        + Y_(1_3)_3 + Y_(1_4)_3 + Y_(2_0)_3 + Y_(2_1)_3
                        + Y_(2_2)_3 + Y_(2_3)_3 + Y_(2_4)_3 + Y_(3_0)_3
                        + Y_(3_1)_3 + Y_(3_2)_3 + Y_(3_3)_3 + Y_(3_4)_3
                        + Y_(4_0)_3 + Y_(4_1)_3 + Y_(4_2)_3 + Y_(4_3)_3
                        + Y_(4_4)_3  = 1
 ARESTA_EM_USO_I_4_J_4: Y_(0_0)_4 + Y_(0_1)_4 + Y_(0_2)_4 + Y_(0_3)_4
                        + Y_(0_4)_4 + Y_(1_0)_4 + Y_(1_1)_4 + Y_(1_2)_4
                        + Y_(1_3)_4 + Y_(1_4)_4 + Y_(2_0)_4 + Y_(2_1)_4
                        + Y_(2_2)_4 + Y_(2_3)_4 + Y_(2_4)_4 + Y_(3_0)_4
                        + Y_(3_1)_4 + Y_(3_2)_4 + Y_(3_3)_4 + Y_(3_4)_4
                        + Y_(4_0)_4 + Y_(4_1)_4 + Y_(4_2)_4 + Y_(4_3)_4
                        + Y_(4_4)_4  = 1
 ARESTA_EM_USO_I_4_J_4: Y_(0_0)_5 + Y_(0_1)_5 + Y_(0_2)_5 + Y_(0_3)_5
                        + Y_(0_4)_5 + Y_(1_0)_5 + Y_(1_1)_5 + Y_(1_2)_5
                        + Y_(1_3)_5 + Y_(1_4)_5 + Y_(2_0)_5 + Y_(2_1)_5
                        + Y_(2_2)_5 + Y_(2_3)_5 + Y_(2_4)_5 + Y_(3_0)_5
                        + Y_(3_1)_5 + Y_(3_2)_5 + Y_(3_3)_5 + Y_(3_4)_5
                        + Y_(4_0)_5 + Y_(4_1)_5 + Y_(4_2)_5 + Y_(4_3)_5
                        + Y_(4_4)_5  = 1
 FLUXO_DE_I_4_PARA_J_1: Y_(0_1)_1 + 2 Y_(0_1)_2 + 3 Y_(0_1)_3 + 4 Y_(0_1)_4
                        + 5 Y_(0_1)_5 - Y_(1_0)_1 - 2 Y_(1_0)_2 - 3 Y_(1_0)_3
                        - 4 Y_(1_0)_4 - 5 Y_(1_0)_5 - Y_(1_2)_1 - 2 Y_(1_2)_2
                        - 3 Y_(1_2)_3 - 4 Y_(1_2)_4 - 5 Y_(1_2)_5 - Y_(1_3)_1
                        - 2 Y_(1_3)_2 - 3 Y_(1_3)_3 - 4 Y_(1_3)_4 - 5 Y_(1_3)_5
                        - Y_(1_4)_1 - 2 Y_(1_4)_2 - 3 Y_(1_4)_3 - 4 Y_(1_4)_4
                        - 5 Y_(1_4)_5 + Y_(2_1)_1 + 2 Y_(2_1)_2 + 3 Y_(2_1)_3
                        + 4 Y_(2_1)_4 + 5 Y_(2_1)_5 + Y_(3_1)_1 + 2 Y_(3_1)_2
                        + 3 Y_(3_1)_3 + 4 Y_(3_1)_4 + 5 Y_(3_1)_5 + Y_(4_1)_1
                        + 2 Y_(4_1)_2 + 3 Y_(4_1)_3 + 4 Y_(4_1)_4 + 5 Y_(4_1)_5
                         = 1
 FLUXO_DE_I_4_PARA_J_2: Y_(0_2)_1 + 2 Y_(0_2)_2 + 3 Y_(0_2)_3 + 4 Y_(0_2)_4
                        + 5 Y_(0_2)_5 + Y_(1_2)_1 + 2 Y_(1_2)_2 + 3 Y_(1_2)_3
                        + 4 Y_(1_2)_4 + 5 Y_(1_2)_5 - Y_(2_0)_1 - 2 Y_(2_0)_2
                        - 3 Y_(2_0)_3 - 4 Y_(2_0)_4 - 5 Y_(2_0)_5 - Y_(2_1)_1
                        - 2 Y_(2_1)_2 - 3 Y_(2_1)_3 - 4 Y_(2_1)_4 - 5 Y_(2_1)_5
                        - Y_(2_3)_1 - 2 Y_(2_3)_2 - 3 Y_(2_3)_3 - 4 Y_(2_3)_4
                        - 5 Y_(2_3)_5 - Y_(2_4)_1 - 2 Y_(2_4)_2 - 3 Y_(2_4)_3
                        - 4 Y_(2_4)_4 - 5 Y_(2_4)_5 + Y_(3_2)_1 + 2 Y_(3_2)_2
                        + 3 Y_(3_2)_3 + 4 Y_(3_2)_4 + 5 Y_(3_2)_5 + Y_(4_2)_1
                        + 2 Y_(4_2)_2 + 3 Y_(4_2)_3 + 4 Y_(4_2)_4 + 5 Y_(4_2)_5
                         = 1
 FLUXO_DE_I_4_PARA_J_3: Y_(0_3)_1 + 2 Y_(0_3)_2 + 3 Y_(0_3)_3 + 4 Y_(0_3)_4
                        + 5 Y_(0_3)_5 + Y_(1_3)_1 + 2 Y_(1_3)_2 + 3 Y_(1_3)_3
                        + 4 Y_(1_3)_4 + 5 Y_(1_3)_5 + Y_(2_3)_1 + 2 Y_(2_3)_2
                        + 3 Y_(2_3)_3 + 4 Y_(2_3)_4 + 5 Y_(2_3)_5 - Y_(3_0)_1
                        - 2 Y_(3_0)_2 - 3 Y_(3_0)_3 - 4 Y_(3_0)_4 - 5 Y_(3_0)_5
                        - Y_(3_1)_1 - 2 Y_(3_1)_2 - 3 Y_(3_1)_3 - 4 Y_(3_1)_4
                        - 5 Y_(3_1)_5 - Y_(3_2)_1 - 2 Y_(3_2)_2 - 3 Y_(3_2)_3
                        - 4 Y_(3_2)_4 - 5 Y_(3_2)_5 - Y_(3_4)_1 - 2 Y_(3_4)_2
                        - 3 Y_(3_4)_3 - 4 Y_(3_4)_4 - 5 Y_(3_4)_5 + Y_(4_3)_1
                        + 2 Y_(4_3)_2 + 3 Y_(4_3)_3 + 4 Y_(4_3)_4 + 5 Y_(4_3)_5
                         = 1
 FLUXO_DE_I_4_PARA_J_4: Y_(0_4)_1 + 2 Y_(0_4)_2 + 3 Y_(0_4)_3 + 4 Y_(0_4)_4
                        + 5 Y_(0_4)_5 + Y_(1_4)_1 + 2 Y_(1_4)_2 + 3 Y_(1_4)_3
                        + 4 Y_(1_4)_4 + 5 Y_(1_4)_5 + Y_(2_4)_1 + 2 Y_(2_4)_2
                        + 3 Y_(2_4)_3 + 4 Y_(2_4)_4 + 5 Y_(2_4)_5 + Y_(3_4)_1
                        + 2 Y_(3_4)_2 + 3 Y_(3_4)_3 + 4 Y_(3_4)_4 + 5 Y_(3_4)_5
                        - Y_(4_0)_1 - 2 Y_(4_0)_2 - 3 Y_(4_0)_3 - 4 Y_(4_0)_4
                        - 5 Y_(4_0)_5 - Y_(4_1)_1 - 2 Y_(4_1)_2 - 3 Y_(4_1)_3
                        - 4 Y_(4_1)_4 - 5 Y_(4_1)_5 - Y_(4_2)_1 - 2 Y_(4_2)_2
                        - 3 Y_(4_2)_3 - 4 Y_(4_2)_4 - 5 Y_(4_2)_5 - Y_(4_3)_1
                        - 2 Y_(4_3)_2 - 3 Y_(4_3)_3 - 4 Y_(4_3)_4 - 5 Y_(4_3)_5
                         = 1
Bounds
 0 <= Y_(0_0)_1 <= 1
 0 <= Y_(0_0)_2 <= 1
 0 <= Y_(0_0)_3 <= 1
 0 <= Y_(0_0)_4 <= 1
 0 <= Y_(0_0)_5 <= 1
 0 <= Y_(0_1)_1 <= 1
 0 <= Y_(0_1)_2 <= 1
 0 <= Y_(0_1)_3 <= 1
 0 <= Y_(0_1)_4 <= 1
 0 <= Y_(0_1)_5 <= 1
 0 <= Y_(0_2)_1 <= 1
 0 <= Y_(0_2)_2 <= 1
 0 <= Y_(0_2)_3 <= 1
 0 <= Y_(0_2)_4 <= 1
 0 <= Y_(0_2)_5 <= 1
 0 <= Y_(0_3)_1 <= 1
 0 <= Y_(0_3)_2 <= 1
 0 <= Y_(0_3)_3 <= 1
 0 <= Y_(0_3)_4 <= 1
 0 <= Y_(0_3)_5 <= 1
 0 <= Y_(0_4)_1 <= 1
 0 <= Y_(0_4)_2 <= 1
 0 <= Y_(0_4)_3 <= 1
 0 <= Y_(0_4)_4 <= 1
 0 <= Y_(0_4)_5 <= 1
 0 <= Y_(1_0)_1 <= 1
 0 <= Y_(1_0)_2 <= 1
 0 <= Y_(1_0)_3 <= 1
 0 <= Y_(1_0)_4 <= 1
 0 <= Y_(1_0)_5 <= 1
 0 <= Y_(1_1)_1 <= 1
 0 <= Y_(1_1)_2 <= 1
 0 <= Y_(1_1)_3 <= 1
 0 <= Y_(1_1)_4 <= 1
 0 <= Y_(1_1)_5 <= 1
 0 <= Y_(1_2)_1 <= 1
 0 <= Y_(1_2)_2 <= 1
 0 <= Y_(1_2)_3 <= 1
 0 <= Y_(1_2)_4 <= 1
 0 <= Y_(1_2)_5 <= 1
 0 <= Y_(1_3)_1 <= 1
 0 <= Y_(1_3)_2 <= 1
 0 <= Y_(1_3)_3 <= 1
 0 <= Y_(1_3)_4 <= 1
 0 <= Y_(1_3)_5 <= 1
 0 <= Y_(1_4)_1 <= 1
 0 <= Y_(1_4)_2 <= 1
 0 <= Y_(1_4)_3 <= 1
 0 <= Y_(1_4)_4 <= 1
 0 <= Y_(1_4)_5 <= 1
 0 <= Y_(2_0)_1 <= 1
 0 <= Y_(2_0)_2 <= 1
 0 <= Y_(2_0)_3 <= 1
 0 <= Y_(2_0)_4 <= 1
 0 <= Y_(2_0)_5 <= 1
 0 <= Y_(2_1)_1 <= 1
 0 <= Y_(2_1)_2 <= 1
 0 <= Y_(2_1)_3 <= 1
 0 <= Y_(2_1)_4 <= 1
 0 <= Y_(2_1)_5 <= 1
 0 <= Y_(2_2)_1 <= 1
 0 <= Y_(2_2)_2 <= 1
 0 <= Y_(2_2)_3 <= 1
 0 <= Y_(2_2)_4 <= 1
 0 <= Y_(2_2)_5 <= 1
 0 <= Y_(2_3)_1 <= 1
 0 <= Y_(2_3)_2 <= 1
 0 <= Y_(2_3)_3 <= 1
 0 <= Y_(2_3)_4 <= 1
 0 <= Y_(2_3)_5 <= 1
 0 <= Y_(2_4)_1 <= 1
 0 <= Y_(2_4)_2 <= 1
 0 <= Y_(2_4)_3 <= 1
 0 <= Y_(2_4)_4 <= 1
 0 <= Y_(2_4)_5 <= 1
 0 <= Y_(3_0)_1 <= 1
 0 <= Y_(3_0)_2 <= 1
 0 <= Y_(3_0)_3 <= 1
 0 <= Y_(3_0)_4 <= 1
 0 <= Y_(3_0)_5 <= 1
 0 <= Y_(3_1)_1 <= 1
 0 <= Y_(3_1)_2 <= 1
 0 <= Y_(3_1)_3 <= 1
 0 <= Y_(3_1)_4 <= 1
 0 <= Y_(3_1)_5 <= 1
 0 <= Y_(3_2)_1 <= 1
 0 <= Y_(3_2)_2 <= 1
 0 <= Y_(3_2)_3 <= 1
 0 <= Y_(3_2)_4 <= 1
 0 <= Y_(3_2)_5 <= 1
 0 <= Y_(3_3)_1 <= 1
 0 <= Y_(3_3)_2 <= 1
 0 <= Y_(3_3)_3 <= 1
 0 <= Y_(3_3)_4 <= 1
 0 <= Y_(3_3)_5 <= 1
 0 <= Y_(3_4)_1 <= 1
 0 <= Y_(3_4)_2 <= 1
 0 <= Y_(3_4)_3 <= 1
 0 <= Y_(3_4)_4 <= 1
 0 <= Y_(3_4)_5 <= 1
 0 <= Y_(4_0)_1 <= 1
 0 <= Y_(4_0)_2 <= 1
 0 <= Y_(4_0)_3 <= 1
 0 <= Y_(4_0)_4 <= 1
 0 <= Y_(4_0)_5 <= 1
 0 <= Y_(4_1)_1 <= 1
 0 <= Y_(4_1)_2 <= 1
 0 <= Y_(4_1)_3 <= 1
 0 <= Y_(4_1)_4 <= 1
 0 <= Y_(4_1)_5 <= 1
 0 <= Y_(4_2)_1 <= 1
 0 <= Y_(4_2)_2 <= 1
 0 <= Y_(4_2)_3 <= 1
 0 <= Y_(4_2)_4 <= 1
 0 <= Y_(4_2)_5 <= 1
 0 <= Y_(4_3)_1 <= 1
 0 <= Y_(4_3)_2 <= 1
 0 <= Y_(4_3)_3 <= 1
 0 <= Y_(4_3)_4 <= 1
 0 <= Y_(4_3)_5 <= 1
 0 <= Y_(4_4)_1 <= 1
 0 <= Y_(4_4)_2 <= 1
 0 <= Y_(4_4)_3 <= 1
 0 <= Y_(4_4)_4 <= 1
 0 <= Y_(4_4)_5 <= 1
Generals
 Y_(0_0)_1  Y_(0_0)_2  Y_(0_0)_3  Y_(0_0)_4  Y_(0_0)_5  Y_(0_1)_1  Y_(0_1)_2 
 Y_(0_1)_3  Y_(0_1)_4  Y_(0_1)_5  Y_(0_2)_1  Y_(0_2)_2  Y_(0_2)_3  Y_(0_2)_4 
 Y_(0_2)_5  Y_(0_3)_1  Y_(0_3)_2  Y_(0_3)_3  Y_(0_3)_4  Y_(0_3)_5  Y_(0_4)_1 
 Y_(0_4)_2  Y_(0_4)_3  Y_(0_4)_4  Y_(0_4)_5  Y_(1_0)_1  Y_(1_0)_2  Y_(1_0)_3 
 Y_(1_0)_4  Y_(1_0)_5  Y_(1_1)_1  Y_(1_1)_2  Y_(1_1)_3  Y_(1_1)_4  Y_(1_1)_5 
 Y_(1_2)_1  Y_(1_2)_2  Y_(1_2)_3  Y_(1_2)_4  Y_(1_2)_5  Y_(1_3)_1  Y_(1_3)_2 
 Y_(1_3)_3  Y_(1_3)_4  Y_(1_3)_5  Y_(1_4)_1  Y_(1_4)_2  Y_(1_4)_3  Y_(1_4)_4 
 Y_(1_4)_5  Y_(2_0)_1  Y_(2_0)_2  Y_(2_0)_3  Y_(2_0)_4  Y_(2_0)_5  Y_(2_1)_1 
 Y_(2_1)_2  Y_(2_1)_3  Y_(2_1)_4  Y_(2_1)_5  Y_(2_2)_1  Y_(2_2)_2  Y_(2_2)_3 
 Y_(2_2)_4  Y_(2_2)_5  Y_(2_3)_1  Y_(2_3)_2  Y_(2_3)_3  Y_(2_3)_4  Y_(2_3)_5 
 Y_(2_4)_1  Y_(2_4)_2  Y_(2_4)_3  Y_(2_4)_4  Y_(2_4)_5  Y_(3_0)_1  Y_(3_0)_2 
 Y_(3_0)_3  Y_(3_0)_4  Y_(3_0)_5  Y_(3_1)_1  Y_(3_1)_2  Y_(3_1)_3  Y_(3_1)_4 
 Y_(3_1)_5  Y_(3_2)_1  Y_(3_2)_2  Y_(3_2)_3  Y_(3_2)_4  Y_(3_2)_5  Y_(3_3)_1 
 Y_(3_3)_2  Y_(3_3)_3  Y_(3_3)_4  Y_(3_3)_5  Y_(3_4)_1  Y_(3_4)_2  Y_(3_4)_3 
 Y_(3_4)_4  Y_(3_4)_5  Y_(4_0)_1  Y_(4_0)_2  Y_(4_0)_3  Y_(4_0)_4  Y_(4_0)_5 
 Y_(4_1)_1  Y_(4_1)_2  Y_(4_1)_3  Y_(4_1)_4  Y_(4_1)_5  Y_(4_2)_1  Y_(4_2)_2 
 Y_(4_2)_3  Y_(4_2)_4  Y_(4_2)_5  Y_(4_3)_1  Y_(4_3)_2  Y_(4_3)_3  Y_(4_3)_4 
 Y_(4_3)_5  Y_(4_4)_1  Y_(4_4)_2  Y_(4_4)_3  Y_(4_4)_4  Y_(4_4)_5 
End
